NAME          DCAP_3_4_2_200_SS45
ROWS
 N  OBJ
 L  CON1
 L  CON2
 L  CON3
 L  CON4
 L  CON5
 L  CON6
 L  CON7
 L  CON8
 L  CON9
 L  CON10
 L  CON11
 L  CON12
 E  CON13
 E  CON14
 E  CON15
 E  CON16
 E  CON17
 E  CON18
 E  CON19
 E  CON20
COLUMNS
    x[1,1]    OBJ       6.180167      CON1      1.000000    
    x[1,1]    CON7      -1.000000     CON8      -1.000000   
    x[1,2]    OBJ       5.039546      CON2      1.000000    
    x[1,2]    CON8      -1.000000   
    x[2,1]    OBJ       6.732585      CON3      1.000000    
    x[2,1]    CON9      -1.000000     CON10     -1.000000   
    x[2,2]    OBJ       7.443064      CON4      1.000000    
    x[2,2]    CON10     -1.000000   
    x[3,1]    OBJ       6.563535      CON5      1.000000    
    x[3,1]    CON11     -1.000000     CON12     -1.000000   
    x[3,2]    OBJ       6.054841      CON6      1.000000    
    x[3,2]    CON12     -1.000000   
    MARKER    'MARKER'                'INTORG'
    u[1,1]    OBJ       48.076654     CON1      -1.000000   
    u[1,2]    OBJ       49.466655     CON2      -1.000000   
    u[2,1]    OBJ       49.996186     CON3      -1.000000   
    u[2,2]    OBJ       32.230043     CON4      -1.000000   
    u[3,1]    OBJ       20.066487     CON5      -1.000000   
    u[3,2]    OBJ       27.484319     CON6      -1.000000   
    y[1,1,1]  OBJ       6.733257      CON7      0.768173    
    y[1,1,1]  CON13     1.000000    
    y[1,1,2]  OBJ       7.206004      CON8      1.037632    
    y[1,1,2]  CON14     1.000000    
    y[1,2,1]  OBJ       9.104575      CON7      0.734557    
    y[1,2,1]  CON15     1.000000    
    y[1,2,2]  OBJ       8.176077      CON8      1.226466    
    y[1,2,2]  CON16     1.000000    
    y[1,3,1]  OBJ       5.320753      CON7      1.362232    
    y[1,3,1]  CON17     1.000000    
    y[1,3,2]  OBJ       5.219256      CON8      0.688106    
    y[1,3,2]  CON18     1.000000    
    y[1,4,1]  OBJ       7.809478      CON7      0.703779    
    y[1,4,1]  CON19     1.000000    
    y[1,4,2]  OBJ       5.928548      CON8      0.679762    
    y[1,4,2]  CON20     1.000000    
    y[2,1,1]  OBJ       9.862028      CON9      0.768173    
    y[2,1,1]  CON13     1.000000    
    y[2,1,2]  OBJ       7.390949      CON10     1.037632    
    y[2,1,2]  CON14     1.000000    
    y[2,2,1]  OBJ       7.101537      CON9      0.734557    
    y[2,2,1]  CON15     1.000000    
    y[2,2,2]  OBJ       5.293438      CON10     1.226466    
    y[2,2,2]  CON16     1.000000    
    y[2,3,1]  OBJ       9.807366      CON9      1.362232    
    y[2,3,1]  CON17     1.000000    
    y[2,3,2]  OBJ       8.472414      CON10     0.688106    
    y[2,3,2]  CON18     1.000000    
    y[2,4,1]  OBJ       6.636344      CON9      0.703779    
    y[2,4,1]  CON19     1.000000    
    y[2,4,2]  OBJ       8.247966      CON10     0.679762    
    y[2,4,2]  CON20     1.000000    
    y[3,1,1]  OBJ       7.511560      CON11     0.768173    
    y[3,1,1]  CON13     1.000000    
    y[3,1,2]  OBJ       7.150641      CON12     1.037632    
    y[3,1,2]  CON14     1.000000    
    y[3,2,1]  OBJ       7.223852      CON11     0.734557    
    y[3,2,1]  CON15     1.000000    
    y[3,2,2]  OBJ       6.271448      CON12     1.226466    
    y[3,2,2]  CON16     1.000000    
    y[3,3,1]  OBJ       9.287847      CON11     1.362232    
    y[3,3,1]  CON17     1.000000    
    y[3,3,2]  OBJ       8.762153      CON12     0.688106    
    y[3,3,2]  CON18     1.000000    
    y[3,4,1]  OBJ       8.298044      CON11     0.703779    
    y[3,4,1]  CON19     1.000000    
    y[3,4,2]  OBJ       6.079405      CON12     0.679762    
    y[3,4,2]  CON20     1.000000    
    z[1,1]    OBJ       654.104275    CON13     1.000000    
    z[1,2]    OBJ       709.888091    CON14     1.000000    
    z[2,1]    OBJ       645.879804    CON15     1.000000    
    z[2,2]    OBJ       929.400127    CON16     1.000000    
    z[3,1]    OBJ       566.328942    CON17     1.000000    
    z[3,2]    OBJ       545.267282    CON18     1.000000    
    z[4,1]    OBJ       880.758913    CON19     1.000000    
    z[4,2]    OBJ       825.825606    CON20     1.000000    
    MARKER    'MARKER'                 'INTEND'
RHS
    RHS       CON1      -0.000000     CON2      -0.000000   
    RHS       CON3      -0.000000     CON4      -0.000000   
    RHS       CON5      -0.000000     CON6      -0.000000   
    RHS       CON7      -0.000000     CON8      -0.000000   
    RHS       CON9      -0.000000     CON10     -0.000000   
    RHS       CON11     -0.000000     CON12     -0.000000   
    RHS       CON13     1.000000      CON14     1.000000    
    RHS       CON15     1.000000      CON16     1.000000    
    RHS       CON17     1.000000      CON18     1.000000    
    RHS       CON19     1.000000      CON20     1.000000    
BOUNDS
 BV BOUND     u[1,1]  
 BV BOUND     u[1,2]  
 BV BOUND     u[2,1]  
 BV BOUND     u[2,2]  
 BV BOUND     u[3,1]  
 BV BOUND     u[3,2]  
 BV BOUND     y[1,1,1]
 BV BOUND     y[1,1,2]
 BV BOUND     y[1,2,1]
 BV BOUND     y[1,2,2]
 BV BOUND     y[1,3,1]
 BV BOUND     y[1,3,2]
 BV BOUND     y[1,4,1]
 BV BOUND     y[1,4,2]
 BV BOUND     y[2,1,1]
 BV BOUND     y[2,1,2]
 BV BOUND     y[2,2,1]
 BV BOUND     y[2,2,2]
 BV BOUND     y[2,3,1]
 BV BOUND     y[2,3,2]
 BV BOUND     y[2,4,1]
 BV BOUND     y[2,4,2]
 BV BOUND     y[3,1,1]
 BV BOUND     y[3,1,2]
 BV BOUND     y[3,2,1]
 BV BOUND     y[3,2,2]
 BV BOUND     y[3,3,1]
 BV BOUND     y[3,3,2]
 BV BOUND     y[3,4,1]
 BV BOUND     y[3,4,2]
 BV BOUND     z[1,1]  
 BV BOUND     z[1,2]  
 BV BOUND     z[2,1]  
 BV BOUND     z[2,2]  
 BV BOUND     z[3,1]  
 BV BOUND     z[3,2]  
 BV BOUND     z[4,1]  
 BV BOUND     z[4,2]  
ENDATA
